
******************************************************************************
This program contains Ipopt, a library for large-scale nonlinear optimization.
 Ipopt is released as open source code under the Eclipse Public License (EPL).
         For more information visit http://projects.coin-or.org/Ipopt
******************************************************************************

This is Ipopt version 3.12.6, running with linear solver ma57.

Number of nonzeros in equality constraint Jacobian...:       65
Number of nonzeros in inequality constraint Jacobian.:        0
Number of nonzeros in Lagrangian Hessian.............:       19

Total number of variables............................:       29
                     variables with only lower bounds:       10
                variables with lower and upper bounds:       10
                     variables with only upper bounds:        0
Total number of equality constraints.................:       20
Total number of inequality constraints...............:        0
        inequality constraints with only lower bounds:        0
   inequality constraints with lower and upper bounds:        0
        inequality constraints with only upper bounds:        0

iter    objective    inf_pr   inf_du lg(mu)  ||d||  lg(rg) alpha_du alpha_pr  ls
   0  5.0000050e+01 1.00e+01 6.46e-01  -1.0 0.00e+00    -  0.00e+00 0.00e+00   0
   1  5.0028651e+01 9.91e+00 5.40e+00  -1.0 1.00e+01    -  1.46e-03 8.80e-03h  1
   2  5.2145613e+01 9.29e+00 5.05e+00  -1.0 9.91e+00    -  2.12e-02 6.28e-02h  1
   3  5.7920601e+01 8.66e+00 4.71e+00  -1.0 9.29e+00    -  2.68e-02 6.79e-02h  1
   4  7.4746722e+01 7.68e+00 4.18e+00  -1.0 8.66e+00    -  2.79e-02 1.13e-01h  1
   5  1.2908613e+02 5.93e+00 3.23e+00  -1.0 7.74e+00    -  2.82e-01 2.28e-01h  1
   6  1.9137639e+02 4.60e+00 2.50e+00  -1.0 6.01e+00    -  2.63e-01 2.25e-01h  1
   7  2.6227821e+02 3.41e+00 4.73e+00  -1.0 4.69e+00    -  1.00e+00 2.58e-01h  1
   8  3.9180843e+02 1.69e+00 1.93e+00  -1.0 3.51e+00    -  9.70e-02 5.05e-01h  1
   9  4.1853238e+02 1.38e+00 2.86e+00  -1.0 1.74e+00    -  1.35e-01 1.85e-01h  1
iter    objective    inf_pr   inf_du lg(mu)  ||d||  lg(rg) alpha_du alpha_pr  ls
  10  5.2288581e+02 2.73e-01 6.97e-01  -1.0 1.45e+00    -  1.00e+00 8.02e-01h  1
  11  5.3905643e+02 1.09e-01 1.33e+00  -1.7 2.75e-01    -  1.00e+00 6.01e-01h  1
  12  5.4564458e+02 4.37e-02 2.08e+00  -1.7 1.12e-01    -  1.00e+00 5.99e-01h  1
  13  5.4844863e+02 1.54e-02 6.78e+00  -1.7 4.37e-02    -  1.00e+00 6.47e-01h  1
  14  5.4916384e+02 8.38e-03 2.55e+01  -1.7 1.58e-02    -  1.00e+00 4.56e-01h  1
  15  5.4979799e+02 2.00e-03 2.57e+01  -1.7 8.38e-03    -  1.00e+00 7.61e-01h  1
  16  5.4987444e+02 1.26e-03 2.25e+02  -1.7 2.08e-03    -  1.00e+00 3.72e-01h  1
  17  5.4997192e+02 2.78e-04 1.69e+02  -1.7 1.26e-03    -  1.00e+00 7.79e-01h  1
  18  5.4997707e+02 2.28e-04 2.13e+03  -1.7 2.90e-04    -  1.00e+00 1.80e-01f  2
  19  5.4999236e+02 7.65e-05 1.71e+03  -1.7 2.31e-04    -  1.00e+00 6.65e-01h  1
iter    objective    inf_pr   inf_du lg(mu)  ||d||  lg(rg) alpha_du alpha_pr  ls
  20  5.4999272e+02 7.29e-05 1.00e+04  -1.7 7.65e-05    -  1.00e+00 4.67e-02f  5
  21  5.4999907e+02 9.24e-06 2.43e+03  -1.7 7.29e-05    -  1.00e+00 8.73e-01h  1
  22  5.4999922e+02 7.75e-06 6.08e+04  -1.7 9.67e-06    -  1.00e+00 1.61e-01f  2
  23  5.4999976e+02 2.43e-06 4.41e+04  -1.7 7.84e-06    -  1.00e+00 6.87e-01h  1
  24  5.4999978e+02 2.18e-06 2.41e+05  -1.7 2.43e-06    -  1.00e+00 1.02e-01f  4
  25  5.5000000e+02 4.10e-08 8.60e+03  -1.7 2.18e-06    -  1.00e+00 9.81e-01h  1
  26  5.5000000e+02 2.29e-08 7.05e+05  -1.7 9.52e-08    -  1.00e+00 4.41e-01f  1
  27  5.5000000e+02 1.04e-15 1.81e-04  -1.7 2.29e-08    -  1.00e+00 1.00e+00f  1
  28  5.5000000e+02 1.30e-15 1.14e+01  -8.6 6.38e-14    -  1.00e+00 1.00e+00h  1
  29  5.5000000e+02 1.07e-15 2.05e-08  -8.6 9.04e-08    -  1.00e+00 1.00e+00f  1
iter    objective    inf_pr   inf_du lg(mu)  ||d||  lg(rg) alpha_du alpha_pr  ls
  30  5.5000000e+02 1.12e-15 7.76e-13  -9.0 2.15e-10    -  1.00e+00 1.00e+00h  1

Number of Iterations....: 30

                                   (scaled)                 (unscaled)
Objective...............:   5.4999999883804287e+02    5.4999999883804287e+02
Dual infeasibility......:   7.7571567212448005e-13    7.7571567212448005e-13
Constraint violation....:   1.1220075135026804e-15    1.1220075135026804e-15
Complementarity.........:   9.4738465540754139e-10    9.4738465540754139e-10
Overall NLP error.......:   9.4738465540754139e-10    9.4738465540754139e-10


Number of objective function evaluations             = 40
Number of objective gradient evaluations             = 31
Number of equality constraint evaluations            = 40
Number of inequality constraint evaluations          = 0
Number of equality constraint Jacobian evaluations   = 31
Number of inequality constraint Jacobian evaluations = 0
Number of Lagrangian Hessian evaluations             = 30
Total CPU secs in IPOPT (w/o function evaluations)   =      0.013
Total CPU secs in NLP function evaluations           =      0.000

EXIT: Optimal Solution Found.

************************ CUTEst statistics ************************


 Package used            :  IPOPT
 Problem                 :  OPTCNTRL  
 # variables             =              32
 # constraints           =              20
 # objective functions   =        0.7200000E+02
 # objective gradients   =        0.3200000E+02
 # objective Hessians    =        0.3100000E+02
 # Hessian-vector prdct  =        0.0000000E+00
 # constraints functions =        0.7300000E+02
 # constraints gradients =        0.3300000E+02
 # constraints Hessians  =        0.3100000E+02
 Exit code               =               0
 Final f                 =   0.5500000E+03
 Set up time             =            0.00 seconds
 Solve time              =            0.04 seconds


******************************************************************

System Time =       0.0099999998 s.
